(declare-const x0 Bool)
(declare-const x1 Bool)
(declare-const x2 Bool)
(declare-const x3 Bool)
(declare-const x4 Bool)
(declare-const x5 Bool)
(declare-const x6 Bool)
(declare-const x7 Bool)
(declare-const x8 Bool)
(declare-const x9 Bool)
(declare-const x10 Bool)
(declare-const x11 Bool)
(declare-const x12 Bool)
(declare-const x13 Bool)
(declare-const x14 Bool)
(declare-const x15 Bool)
(declare-const x16 Bool)
(declare-const x17 Bool)
(declare-const x18 Bool)
(declare-const x19 Bool)
(declare-const x20 Bool)
(declare-const x21 Bool)
(declare-const x22 Bool)
(declare-const x23 Bool)
(declare-const x24 Bool)
(declare-const x25 Bool)
(declare-const x26 Bool)
(declare-const x27 Bool)
(declare-const x28 Bool)
(declare-const x29 Bool)
(declare-const x30 Bool)
(declare-const x31 Bool)
(declare-const x32 Bool)
(declare-const x33 Bool)
(declare-const x34 Bool)
(declare-const x35 Bool)
(declare-const x36 Bool)
(declare-const y0 Real)
(declare-const y1 Real)
(declare-const y2 Real)
(declare-const y3 Real)
(declare-const y4 Real)
(declare-const y5 Real)
(declare-const y6 Real)
(declare-const y7 Real)
(declare-const y8 Real)
(declare-const y9 Real)
(declare-const y10 Real)
(declare-const y11 Real)
(declare-const y12 Real)
(declare-const y13 Real)
(declare-const y14 Real)
(declare-const y15 Real)
(declare-const y16 Real)
(declare-const y17 Real)
(declare-const y18 Real)
(declare-const y19 Real)
(declare-const y20 Real)
(declare-const y21 Real)
(declare-const y22 Real)
(declare-const y23 Real)
(declare-const y24 Real)
(declare-const y25 Real)
(declare-const y26 Real)
(declare-const y27 Real)
(declare-const y28 Real)
(declare-const y29 Real)
(declare-const y30 Real)
(declare-const y31 Real)
(declare-const y32 Real)
(declare-const y33 Real)
(declare-const y34 Real)
(declare-const y35 Real)
(declare-const y36 Real)
(declare-const y37 Real)
(declare-const y38 Real)
(declare-const y39 Real)
(declare-const y40 Real)
(assert (and false x14))
(assert (< (+ y40 y0) y36))
(assert (or x5 (< (+ 49 y2) 99)))
(assert true)
(assert (and (< y2 y15) x13))
(assert (and true (and true (or x25 true))))
(assert (or x33 (or x28 x24)))
(assert (< (+ y8 (+ 27 83)) (+ 19 (+ 81 55))))
(assert (and (and true false) x4))
(assert (or x12 (< (+ 70 60) 64)))
(check-sat)
